(set-info :smt-lib-version 2.6)
(set-logic NIA)
(set-info
  :source |
 Generated by PSyCO 0.1
 More info in N. P. Lopes and J. Monteiro. Weakest Precondition Synthesis for
 Compiler Optimizations, VMCAI'14.
|)
(set-info :category "industrial")
(set-info :status unsat)
(declare-fun W_S1_V1 () Bool)
(declare-fun W_S1_V3 () Bool)
(declare-fun W_S1_V2 () Bool)
(declare-fun W_S1_V4 () Bool)
(declare-fun W_S1_V7 () Bool)
(declare-fun R_S1_V1 () Bool)
(declare-fun R_S1_V3 () Bool)
(declare-fun R_S1_V2 () Bool)
(declare-fun R_S1_V4 () Bool)
(declare-fun R_S1_V7 () Bool)
(declare-fun R_S1_V6 () Bool)
(declare-fun DISJ_W_S1_R_S1 () Bool)
(declare-fun W_S1_V6 () Bool)
(assert
 (let
 (($x1101
   (forall
    ((V6_0 Int) (V7_0 Int) 
     (V4_0 Int) (V2_0 Int) 
     (V1_0 Int) (MW_S1_V6 Bool) 
     (MW_S1_V7 Bool) (MW_S1_V4 Bool) 
     (MW_S1_V2 Bool) (MW_S1_V3 Bool) 
     (MW_S1_V1 Bool) (S1_V4_!74 Int) 
     (S1_V4_!80 Int) (S1_V4_!86 Int) 
     (S1_V4_!92 Int) (S1_V7_!73 Int) 
     (S1_V7_!79 Int) (S1_V7_!85 Int) 
     (S1_V7_!91 Int) (S1_V6_!72 Int) 
     (S1_V6_!78 Int) (S1_V6_!84 Int) 
     (S1_V6_!90 Int) (S1_V1_!77 Int) 
     (S1_V1_!83 Int) (S1_V1_!89 Int) 
     (S1_V1_!95 Int) (S1_V3_!76 Int) 
     (S1_V3_!82 Int) (S1_V3_!88 Int) 
     (S1_V3_!94 Int) (S1_V2_!75 Int) 
     (S1_V2_!81 Int) (S1_V2_!87 Int) 
     (S1_V2_!93 Int))
    (let ((?x1159 (ite MW_S1_V1 S1_V1_!89 V1_0)))
    (let ((?x1207 (+ 1 ?x1159)))
    (let ((?x1262 (ite MW_S1_V1 S1_V1_!95 ?x1207)))
    (let ((?x1132 (ite MW_S1_V1 S1_V1_!77 V1_0)))
    (let ((?x1133 (+ 1 ?x1132)))
    (let ((?x1256 (ite MW_S1_V1 S1_V1_!83 ?x1133)))
    (let (($x1281 (= ?x1256 ?x1262)))
    (let
    (($x1280
      (= (ite MW_S1_V3 S1_V3_!82 (* ?x1133 (ite MW_S1_V4 S1_V4_!74 V4_0)))
      (ite MW_S1_V3 S1_V3_!94 (+ (* V1_0 V4_0) V4_0)))))
    (let ((?x1263 (ite MW_S1_V2 S1_V2_!93 V2_0)))
    (let ((?x1257 (ite MW_S1_V2 S1_V2_!81 V2_0)))
    (let (($x1277 (= ?x1257 ?x1263)))
    (let
    (($x1276 (= (ite MW_S1_V4 S1_V4_!80 V4_0) (ite MW_S1_V4 S1_V4_!92 V4_0))))
    (let
    (($x1273 (= (ite MW_S1_V7 S1_V7_!79 V7_0) (ite MW_S1_V7 S1_V7_!91 V7_0))))
    (let
    (($x1270 (= (ite MW_S1_V6 S1_V6_!78 V6_0) (ite MW_S1_V6 S1_V6_!90 V6_0))))
    (let
    (($x1266
      (and (not (<= V2_0 V1_0))
      (not (<= (ite MW_S1_V2 S1_V2_!75 V2_0) ?x1133))
      (>= ?x1256 (+ (- 1) ?x1257))
      (not (<= (ite MW_S1_V2 S1_V2_!87 V2_0) ?x1207))
      (>= ?x1262 (+ (- 1) ?x1263)))))
    (let (($x903 (or (not MW_S1_V1) W_S1_V1)))
    (let (($x905 (or (not MW_S1_V3) W_S1_V3)))
    (let (($x907 (or (not MW_S1_V2) W_S1_V2)))
    (let (($x909 (or (not MW_S1_V4) W_S1_V4)))
    (let (($x911 (or (not MW_S1_V7) W_S1_V7)))
    (let (($x915 (= S1_V2_!93 S1_V2_!75)))
    (let (($x106 (not R_S1_V3)))
    (let (($x1158 (or $x106 (= V4_0 0))))
    (let (($x104 (not R_S1_V2)))
    (let (($x1156 (or $x104 (= (ite MW_S1_V2 S1_V2_!87 V2_0) V2_0))))
    (let (($x102 (not R_S1_V4)))
    (let (($x1153 (or $x102 (= (ite MW_S1_V4 S1_V4_!86 V4_0) V4_0))))
    (let (($x100 (not R_S1_V7)))
    (let (($x1150 (or $x100 (= (ite MW_S1_V7 S1_V7_!85 V7_0) V7_0))))
    (let (($x98 (not R_S1_V6)))
    (let (($x1147 (or $x98 (= (ite MW_S1_V6 S1_V6_!84 V6_0) V6_0))))
    (let
    (($x1162
      (and $x1147 $x1150 $x1153 $x1156 $x1158
      (or (not R_S1_V1) (= ?x1159 (+ (- 1) V1_0))))))
    (let (($x1163 (not $x1162)))
    (let (($x935 (= S1_V2_!87 S1_V2_!93)))
    (let (($x1204 (or $x104 (= V2_0 (ite MW_S1_V2 S1_V2_!87 V2_0)))))
    (let (($x1202 (or $x102 (= V4_0 (ite MW_S1_V4 S1_V4_!86 V4_0)))))
    (let (($x1200 (or $x100 (= V7_0 (ite MW_S1_V7 S1_V7_!85 V7_0)))))
    (let (($x1198 (or $x98 (= V6_0 (ite MW_S1_V6 S1_V6_!84 V6_0)))))
    (let
    (($x1210
      (and $x1198 $x1200 $x1202 $x1204 
      (or $x106 (= 0 V4_0)) 
      (or (not R_S1_V1) (= V1_0 ?x1207)))))
    (let (($x1211 (not $x1210)))
    (let (($x951 (= S1_V2_!87 S1_V2_!75)))
    (let (($x952 (= S1_V2_!81 S1_V2_!93)))
    (let (($x108 (not R_S1_V1)))
    (let (($x1233 (or $x108 (= ?x1132 ?x1159))))
    (let
    (($x1229
      (or $x104
      (= (ite MW_S1_V2 S1_V2_!75 V2_0) (ite MW_S1_V2 S1_V2_!87 V2_0)))))
    (let
    (($x1227
      (or $x102
      (= (ite MW_S1_V4 S1_V4_!74 V4_0) (ite MW_S1_V4 S1_V4_!86 V4_0)))))
    (let
    (($x1225
      (or $x100
      (= (ite MW_S1_V7 S1_V7_!73 V7_0) (ite MW_S1_V7 S1_V7_!85 V7_0)))))
    (let
    (($x1223
      (or $x98
      (= (ite MW_S1_V6 S1_V6_!72 V6_0) (ite MW_S1_V6 S1_V6_!84 V6_0)))))
    (let
    (($x1234
      (and $x1223 $x1225 $x1227 $x1229
      (or $x106
      (= (* ?x1133 (ite MW_S1_V4 S1_V4_!74 V4_0)) (+ (* V1_0 V4_0) V4_0)))
      $x1233)))
    (let (($x1235 (not $x1234)))
    (let (($x973 (= S1_V2_!81 S1_V2_!87)))
    (let (($x1131 (or $x104 (= (ite MW_S1_V2 S1_V2_!75 V2_0) V2_0))))
    (let (($x1128 (or $x102 (= (ite MW_S1_V4 S1_V4_!74 V4_0) V4_0))))
    (let (($x1125 (or $x100 (= (ite MW_S1_V7 S1_V7_!73 V7_0) V7_0))))
    (let (($x1122 (or $x98 (= (ite MW_S1_V6 S1_V6_!72 V6_0) V6_0))))
    (let
    (($x1141
      (and $x1122 $x1125 $x1128 $x1131
      (or $x106 (= (* ?x1133 (ite MW_S1_V4 S1_V4_!74 V4_0)) (* V1_0 V4_0)))
      (or $x108 (= ?x1132 (+ (- 1) V1_0))))))
    (let (($x1142 (not $x1141)))
    (let (($x995 (= S1_V3_!88 S1_V3_!82)))
    (let (($x1189 (or $x104 (= V2_0 (ite MW_S1_V2 S1_V2_!75 V2_0)))))
    (let (($x1187 (or $x102 (= V4_0 (ite MW_S1_V4 S1_V4_!74 V4_0)))))
    (let (($x1185 (or $x100 (= V7_0 (ite MW_S1_V7 S1_V7_!73 V7_0)))))
    (let (($x1183 (or $x98 (= V6_0 (ite MW_S1_V6 S1_V6_!72 V6_0)))))
    (let
    (($x1194
      (and $x1183 $x1185 $x1187 $x1189
      (or $x106 (= (* V1_0 V4_0) (* ?x1133 (ite MW_S1_V4 S1_V4_!74 V4_0))))
      (or $x108 (= V1_0 ?x1133)))))
    (let (($x1195 (not $x1194)))
    (let (($x1011 (= S1_V3_!88 S1_V3_!76)))
    (let (($x1022 (= S1_V1_!89 S1_V1_!77)))
    (let (($x1027 (= S1_V6_!90 S1_V6_!78)))
    (let (($x1177 (or $x108 (= ?x1159 ?x1132))))
    (let
    (($x1172
      (or $x104
      (= (ite MW_S1_V2 S1_V2_!87 V2_0) (ite MW_S1_V2 S1_V2_!75 V2_0)))))
    (let
    (($x1170
      (or $x102
      (= (ite MW_S1_V4 S1_V4_!86 V4_0) (ite MW_S1_V4 S1_V4_!74 V4_0)))))
    (let
    (($x1168
      (or $x100
      (= (ite MW_S1_V7 S1_V7_!85 V7_0) (ite MW_S1_V7 S1_V7_!73 V7_0)))))
    (let
    (($x1166
      (or $x98
      (= (ite MW_S1_V6 S1_V6_!84 V6_0) (ite MW_S1_V6 S1_V6_!72 V6_0)))))
    (let
    (($x1178
      (and $x1166 $x1168 $x1170 $x1172
      (or $x106
      (= (+ (* V1_0 V4_0) V4_0) (* ?x1133 (ite MW_S1_V4 S1_V4_!74 V4_0))))
      $x1177)))
    (let (($x1179 (not $x1178)))
    (let (($x1050 (= S1_V6_!84 S1_V6_!72)))
    (let (($x1059 (= S1_V7_!85 S1_V7_!73)))
    (let (($x1070 (= S1_V4_!86 S1_V4_!74)))
    (let
    (($x1098
      (and (or $x1142 (= S1_V4_!80 S1_V4_!74))
      (or $x1142 (= S1_V4_!80 S1_V4_!86)) $x1070
      (or $x1163 (= S1_V4_!92 S1_V4_!74)) 
      (or $x1179 (= S1_V4_!92 S1_V4_!80)) 
      (or $x1163 (= S1_V4_!92 S1_V4_!86)) 
      (or $x1195 (= S1_V7_!73 S1_V7_!79)) 
      (or $x1211 (= S1_V7_!73 S1_V7_!91)) $x1059
      (or $x1195 (= S1_V7_!85 S1_V7_!79)) 
      (or $x1211 (= S1_V7_!85 S1_V7_!91)) 
      (or $x1179 (= S1_V7_!91 S1_V7_!79)) 
      (or $x1195 (= S1_V6_!72 S1_V6_!78)) $x1050
      (or $x1195 (= S1_V6_!84 S1_V6_!78)) 
      (or $x1211 (= S1_V6_!84 S1_V6_!90)) 
      (or $x1163 (= S1_V6_!90 S1_V6_!72)) 
      (or $x1179 $x1027) (or $x1142 (= S1_V1_!83 S1_V1_!77))
      (or $x1235 (= S1_V1_!83 S1_V1_!95)) $x1022
      (or $x1195 (= S1_V1_!89 S1_V1_!83)) 
      (or $x1211 (= S1_V1_!89 S1_V1_!95)) 
      (or $x1163 (= S1_V1_!95 S1_V1_!77)) 
      (or $x1142 (= S1_V3_!82 S1_V3_!76)) 
      (or $x1235 (= S1_V3_!82 S1_V3_!94)) $x1011 
      (or $x1195 $x995) (or $x1211 (= S1_V3_!88 S1_V3_!94))
      (or $x1163 (= S1_V3_!94 S1_V3_!76)) 
      (or $x1142 (= S1_V2_!81 S1_V2_!75)) 
      (or $x1142 $x973) (or $x1235 $x952) $x951 
      (or $x1211 $x935) (or $x1163 $x915) $x911 $x909 $x907 $x905 $x903)))
    (or (not $x1098) (not $x1266)
    (and $x1270 $x1273 $x1276 $x1277 $x1280 $x1281)))))))))))))))))))))))))))))))))))))))))))))))))))))))))))))))))))))))))))))))))))
 (let
 (($x31
   (or R_S1_V6 (and W_S1_V7 R_S1_V7) 
   (and W_S1_V4 R_S1_V4) (and W_S1_V2 R_S1_V2) 
   (and W_S1_V3 R_S1_V3) (and W_S1_V1 R_S1_V1))))
 (let (($x33 (= DISJ_W_S1_R_S1 (not $x31)))) (and W_S1_V6 $x33 $x1101)))))
(assert (not (and (not W_S1_V4) (not W_S1_V1))))
(assert
 (let (($x490 (not W_S1_V4)))
 (let (($x106 (not R_S1_V3)))
 (let (($x1766 (and $x106 $x490 DISJ_W_S1_R_S1))) (not $x1766)))))
(check-sat)
(exit)

